File : Instances/p57
Used 68s
27321

1 0 1 1 1 1 1 1 1 0 1 0 0 0 0 1 1 1 0 1 1 0 0 0 0 1 0 1 1 0 
7 19 2 27 2 6 15 27 27 28 4 28 10 3 28 7 3 20 16 0 27 16 5 0 10 27 27 17 4 2 19 19 4 16 27 6 20 8 16 15 7 8 6 4 8 19 3 16 19 20 0 16 2 16 8 6 7 8 27 7 4 0 7 8 3 25 5 17 19 25 7 6 19 8 5 10 20 5 8 16 10 0 8 25 4 10 6 5 27 7 28 6 25 25 0 3 28 6 0 28 28 15 25 7 4 0 4 16 16 3 19 4 27 6 6 8 28 7 17 8 20 25 17 19 4 16 2 28 19 17 28 16 25 20 5 8 3 3 28 10 25 27 28 25 25 5 16 15 27 25 0 17 5 0 8 28 2 15 3 3 3 0 10 2 5 27 5 4 3 15 5 20 19 20 4 2 0 10 4 10 5 15 2 19 25 8 28 10 0 2 2 16 6 6 7 6 7 15 10 19 
